! B3LYP def2-SVP TightSCF Freq

* xyz 0 2
H 0.0 0.0 0.0
*