! B3LYP def2-SVP TightSCF Freq

* xyz 0 3
C 0.0 0.0 0.0
*
