! B3LYP def2-SVP TightSCF Freq

* xyz 0 3
O 0.0 0.0 0.0
*
